Solver command line: ['C:\\Program Files\\IBM\\ILOG\\CPLEX_Studio2211\\cplex\\bin\\x64_win64\\cplex.exe']


Welcome to IBM(R) ILOG(R) CPLEX(R) Interactive Optimizer 22.1.1.0
  with Simplex, Mixed Integer & Barrier Optimizers
5725-A06 5725-A29 5724-Y48 5724-Y49 5724-Y54 5724-Y55 5655-Y21
Copyright IBM Corp. 1988, 2022.  All Rights Reserved.

Type 'help' for a list of available commands.
Type 'help' followed by a command name for more
information on commands.

CPLEX> Logfile 'cplex.log' closed.
Logfile 'C:\Users\wangy\Documents\GitHub\re_optimization\result_site_specific\tmprikvy3o1.cplex.log' open.
CPLEX> Problem 'C:\Users\wangy\Documents\GitHub\re_optimization\result_site_specific\tmpsdpybawu.pyomo.lp' read.
Read time = 0.22 sec. (7.29 ticks)
CPLEX> Problem name         : C:\Users\wangy\Documents\GitHub\re_optimization\result_site_specific\tmpsdpybawu.pyomo.lp
Objective sense      : Minimize
Variables            :   52617  [Nneg: 27764,  Free: 8786,  Binary: 7,
                                 Other: 16060]
Objective nonzeros   :      14
Linear constraints   :   73052  [Less: 39437,  Greater: 3,  Equal: 33612]
  Nonzeros           :  181260
  RHS nonzeros       :    3316

Variables            : Min LB: 0.000000         Max UB: 1.000000       
Objective nonzeros   : Min   : 1.000000         Max   : 1.000000       
Linear constraints   :
  Nonzeros           : Min   : 0.001540276      Max   : 100000.0       
  RHS nonzeros       : Min   : 0.3070000        Max   : 1000.000       
CPLEX> Version identifier: 22.1.1.0 | 2022-11-27 | 9160aff4d
Tried aggregator 3 times.
MIP Presolve eliminated 49675 rows and 30696 columns.
Aggregator did 7847 substitutions.
Reduced MIP has 15530 rows, 14074 columns, and 45292 nonzeros.
Reduced MIP has 5 binaries, 0 generals, 0 SOSs, and 0 indicators.
Presolve time = 0.12 sec. (150.93 ticks)
Found incumbent of value 199811.529693 after 0.17 sec. (173.76 ticks)
Probing time = 0.00 sec. (0.86 ticks)
Tried aggregator 1 time.
Detecting symmetries...
Reduced MIP has 15530 rows, 14074 columns, and 45292 nonzeros.
Reduced MIP has 5 binaries, 0 generals, 0 SOSs, and 0 indicators.
Presolve time = 0.03 sec. (26.97 ticks)
Probing time = 0.00 sec. (0.79 ticks)
MIP emphasis: balance optimality and feasibility.
MIP search method: dynamic search.
Parallel mode: deterministic, using up to 16 threads.
Root relaxation solution time = 0.58 sec. (590.72 ticks)

        Nodes                                         Cuts/
   Node  Left     Objective  IInf  Best Integer    Best Bound    ItCnt     Gap

*     0+    0                       199811.5297    -8019.8709           104.01%
*     0+    0                         9878.3158    -8019.8709           181.19%
      0     0     6974.6156     1     9878.3158     6974.6156       79   29.39%
*     0+    0                         8578.8474     6974.6156            18.70%
      0     0        cutoff           8578.8474                     93    0.00%
Elapsed time = 0.94 sec. (890.68 ticks, tree = 0.01 MB, solutions = 3)

Root node processing (before b&c):
  Real time             =    0.94 sec. (893.13 ticks)
Parallel b&c, 16 threads:
  Real time             =    0.00 sec. (0.00 ticks)
  Sync time (average)   =    0.00 sec.
  Wait time (average)   =    0.00 sec.
                          ------------
Total (root+branch&cut) =    0.94 sec. (893.13 ticks)

Solution pool: 3 solutions saved.

MIP - Integer optimal solution:  Objective =  8.5788474463e+03
Solution time =    0.94 sec.  Iterations = 93  Nodes = 0
Deterministic time = 893.28 ticks  (952.32 ticks/sec)

CPLEX> Incumbent solution written to file 'C:\Users\wangy\Documents\GitHub\re_optimization\result_site_specific\tmp20two5le.cplex.sol'.
CPLEX> 
